MgNb2(PO5)2
  1.00000000000000
    6.6163409060626019    0.0000000018655350    0.0000000000000000
   -0.0000000018655350    6.6163409060626028    0.0000000000000000
    0.0000000000000000    0.0000000000000000   20.0000000000000000
  O    Mg   P    Nb
  10     2     2     2
Direct
  0.0002712350798468  0.8185787385172539  0.5492543398219055
  0.9997287699201571  0.1814212614827533  0.5492543398219055
  0.8185787385172539  0.9997287699201571  0.4507456601780948
  0.1814212614827533  0.0002712350798468  0.4507456601780948
  0.3082479322572679  0.4996288051801751  0.5451899449942643
  0.6917520377427294  0.5003711948198251  0.5451899449942643
  0.4996288051801751  0.6917520377427294  0.4548100550057359
  0.5003711948198251  0.3082479322572679  0.4548100550057359
 -0.0000000000000000  0.5000000000000000  0.4272500375597658
  0.5000000000000000  0.0000000000000000  0.5727499624402344
 -0.0000000000000000  0.0000000000000000  0.3645449776172466
 -0.0000000000000000  0.0000000000000000  0.6354549923827582
 -0.0000000000000000  0.0000000000000000  0.5000000000000000
  0.5000000000000000  0.5000000000000000  0.5000000000000000
 -0.0000000000000000  0.5000000000000000  0.5150223814425460
  0.5000000000000000  0.0000000000000000  0.4849776185574615

  0.00000000E+00  0.00000000E+00  0.00000000E+00
  0.00000000E+00  0.00000000E+00  0.00000000E+00
  0.00000000E+00  0.00000000E+00  0.00000000E+00
  0.00000000E+00  0.00000000E+00  0.00000000E+00
  0.00000000E+00  0.00000000E+00  0.00000000E+00
  0.00000000E+00  0.00000000E+00  0.00000000E+00
  0.00000000E+00  0.00000000E+00  0.00000000E+00
  0.00000000E+00  0.00000000E+00  0.00000000E+00
  0.00000000E+00  0.00000000E+00  0.00000000E+00
  0.00000000E+00  0.00000000E+00  0.00000000E+00
  0.00000000E+00  0.00000000E+00  0.00000000E+00
  0.00000000E+00  0.00000000E+00  0.00000000E+00
  0.00000000E+00  0.00000000E+00  0.00000000E+00
  0.00000000E+00  0.00000000E+00  0.00000000E+00
  0.00000000E+00  0.00000000E+00  0.00000000E+00
  0.00000000E+00  0.00000000E+00  0.00000000E+00
